NAME          BLANK   
ROWS
 N  OBJROW
 L  R0000000
COLUMNS
    C0000000  OBJROW     -276.         R0000000  146.        
    C0000001  OBJROW     -398.         R0000000  217.        
    C0000002  OBJROW     -420.         R0000000  930.        
    C0000003  OBJROW     -999.         R0000000  17.         
    C0000004  OBJROW     -20.          R0000000  400.        
    C0000005  OBJROW     -415.         R0000000  419.        
    C0000006  OBJROW     -938.         R0000000  888.        
    C0000007  OBJROW     -424.         R0000000  73.         
    C0000008  OBJROW     -627.         R0000000  610.        
    C0000009  OBJROW     -496.         R0000000  673.        
    C0000010  OBJROW     -985.         R0000000  896.        
    C0000011  OBJROW     -994.         R0000000  450.        
    C0000012  OBJROW     -207.         R0000000  608.        
    C0000013  OBJROW     -635.         R0000000  874.        
    C0000014  OBJROW     -823.         R0000000  72.         
    C0000015  OBJROW     -20.          R0000000  458.        
    C0000016  OBJROW     -341.         R0000000  969.        
    C0000017  OBJROW     -838.         R0000000  912.        
    C0000018  OBJROW     -949.         R0000000  314.        
    C0000019  OBJROW     -532.         R0000000  672.        
    C0000020  OBJROW     -503.         R0000000  74.         
    C0000021  OBJROW     -386.         R0000000  416.        
    C0000022  OBJROW     -361.         R0000000  226.        
    C0000023  OBJROW     -144.         R0000000  361.        
    C0000024  OBJROW     -210.         R0000000  16.         
    C0000025  OBJROW     -481.         R0000000  875.        
    C0000026  OBJROW     -250.         R0000000  150.        
    C0000027  OBJROW     -193.         R0000000  965.        
    C0000028  OBJROW     -376.         R0000000  534.        
    C0000029  OBJROW     -98.          R0000000  365.        
RHS
    RHS       R0000000  7290.       
BOUNDS
 BV BOUND     C0000000  1.          
 BV BOUND     C0000001  1.          
 BV BOUND     C0000002  1.          
 BV BOUND     C0000003  1.          
 BV BOUND     C0000004  1.          
 BV BOUND     C0000005  1.          
 BV BOUND     C0000006  1.          
 BV BOUND     C0000007  1.          
 BV BOUND     C0000008  1.          
 BV BOUND     C0000009  1.          
 BV BOUND     C0000010  1.          
 BV BOUND     C0000011  1.          
 BV BOUND     C0000012  1.          
 BV BOUND     C0000013  1.          
 BV BOUND     C0000014  1.          
 BV BOUND     C0000015  1.          
 BV BOUND     C0000016  1.          
 BV BOUND     C0000017  1.          
 BV BOUND     C0000018  1.          
 BV BOUND     C0000019  1.          
 BV BOUND     C0000020  1.          
 BV BOUND     C0000021  1.          
 BV BOUND     C0000022  1.          
 BV BOUND     C0000023  1.          
 BV BOUND     C0000024  1.          
 BV BOUND     C0000025  1.          
 BV BOUND     C0000026  1.          
 BV BOUND     C0000027  1.          
 BV BOUND     C0000028  1.          
 BV BOUND     C0000029  1.          
ENDATA
